[on. 05. april 13:39:33 +0200 2023]  ./input/alternate_g_np_100/100-1-4.gcc
Set parameter Username
Academic license - for non-commercial use only - expires 2024-03-28
Set parameter TimeLimit to value 1800
Set parameter PreCrush to value 1
Set parameter LazyConstraints to value 1
Gurobi Optimizer version 10.0.1 build v10.0.1rc0 (linux64)

CPU model: AMD Ryzen 9 5950X 16-Core Processor, instruction set [SSE2|AVX|AVX2]
Thread count: 16 physical cores, 32 logical processors, using up to 32 threads

Optimize a model with 106 rows, 700 columns and 1900 nonzeros
Model fingerprint: 0xd9242fbf
Variable types: 0 continuous, 700 integer (700 binary)
Coefficient statistics:
  Matrix range     [1e+00, 1e+00]
  Objective range  [1e+00, 1e+02]
  Bounds range     [1e+00, 1e+00]
  RHS range        [1e+00, 1e+00]
Presolve added 5 rows and 5 columns
Presolve time: 0.00s
Presolved: 111 rows, 705 columns, 1415 nonzeros
Variable types: 0 continuous, 705 integer (700 binary)

Root relaxation: objective 4.668000e+03, 1 iterations, 0.00 seconds (0.00 work units)

    Nodes    |    Current Node    |     Objective Bounds      |     Work
 Expl Unexpl |  Obj  Depth IntInf | Incumbent    BestBd   Gap | It/Node Time

     0     0 4668.00000    0    -          - 4668.00000      -     -    0s
     0     0 4668.00000    0    -          - 4668.00000      -     -    0s
     0     0 4668.00000    0    -          - 4668.00000      -     -    0s
     0     0 4668.00000    0    -          - 4668.00000      -     -    0s
     0     0 4668.00000    0    -          - 4668.00000      -     -    0s
     0     0 4668.00000    0    8          - 4668.00000      -     -    0s
     0     0 4668.00000    0   15          - 4668.00000      -     -    0s
     0     0 3350.00000    0    -          - 3350.00000      -     -    0s
     0     0 3350.00000    0    7          - 3350.00000      -     -    0s
     0     0 3328.00000    0   38          - 3328.00000      -     -    0s
     0     0 3223.20000    0   45          - 3223.20000      -     -    0s
     0     0 3105.02837    0   51          - 3105.02837      -     -    0s
     0     0 3031.62871    0   58          - 3031.62871      -     -    0s
     0     0 2947.61284    0   71          - 2947.61284      -     -    0s
     0     0 2848.22488    0   89          - 2848.22488      -     -    0s
     0     0 2765.12622    0  100          - 2765.12622      -     -    0s
     0     0 2700.07817    0  111          - 2700.07817      -     -    0s
     0     0 2646.02481    0  119          - 2646.02481      -     -    0s
     0     0 2590.37646    0  123          - 2590.37646      -     -    0s
     0     0 2545.54809    0  130          - 2545.54809      -     -    0s
     0     0 2498.75287    0  133          - 2498.75287      -     -    0s
     0     0 2455.39546    0  138          - 2455.39546      -     -    0s
     0     0 2428.40355    0  145          - 2428.40355      -     -    0s
     0     0 2398.02884    0  149          - 2398.02884      -     -    0s
     0     0 2369.31000    0  156          - 2369.31000      -     -    0s
     0     0 2350.51092    0  158          - 2350.51092      -     -    0s
     0     0 2329.08146    0  165          - 2329.08146      -     -    0s
     0     0 2310.97388    0  161          - 2310.97388      -     -    0s
     0     0 2289.52012    0  171          - 2289.52012      -     -    0s
     0     0 2269.48072    0  169          - 2269.48072      -     -    0s
     0     0 2265.25536    0  171          - 2265.25536      -     -    0s
     0     0 2254.06696    0  171          - 2254.06696      -     -    0s
     0     0 2249.23376    0  167          - 2249.23376      -     -    0s
     0     0 2235.27219    0  170          - 2235.27219      -     -    0s
     0     0 2223.58014    0  172          - 2223.58014      -     -    0s
     0     2 2208.20654    0  174          - 2208.20654      -     -    0s
* 1981  1740             128    1179.0000000 2204.74957  87.0%  49.1    1s
H 2409  1884                    1990.0000000 1990.00000  0.00%  47.5    1s

Cutting planes:
  User: 259
  Gomory: 1
  Flow cover: 2
  Zero half: 23
  Lazy constraints: 7

Explored 2409 nodes (127020 simplex iterations) in 1.94 seconds (2.99 work units)
Thread count was 32 (of 32 available processors)

Solution count 2: 1990 1179 

Optimal solution found (tolerance 1.00e-04)
Best objective 1.990000000000e+03, best bound 1.990000000000e+03, gap 0.0000%

User-callback calls 5430, time in user-callback 0.35 sec
Minimal separator inequalities added: 2565
Indegree inequalities added: 14902
Passed solution check
[on. 05. april 13:39:35 +0200 2023]  done

